7049
7065
7123
7066
7152
7076
7078
6960
7053
7038
6924
6943
7059
7056
7000
7117
7059
7073
6884
6937
7098
7143
7119
7087
7113
6820
6877
7176
6981
7056
7000
7157
7041
7044
7084
7017
7006
7109
7042
7022
6981
7126
6974
7059
7096
7118
6928
7192
7016
6963
7072
7101
6907
7052
7064
7109
7062
7053
7018
7091
7065
7024
7003
7047
6985
7102
6984
7054
7086
6925
7069
7017
6987
7050
6948
7025
7057
7116
7043
7005
6950
7041
6924
6997
7117
6978
7045
6919
7075
7059
7082
7082
7040
6945
6971
7066
7075
6866
7126
6979
